
Gurobi 8.0.1 (linux64, Python) logging started Fri Oct 25 13:55:21 2019

Optimize a model with 4 rows, 2 columns and 6 nonzeros
Coefficient statistics:
  Matrix range     [1e+00, 2e+00]
  Objective range  [4e+00, 1e+01]
  Bounds range     [0e+00, 0e+00]
  RHS range        [6e+00, 2e+01]
Presolve removed 2 rows and 0 columns
Presolve time: 0.04s
Presolved: 2 rows, 2 columns, 4 nonzeros

Iteration    Objective       Primal Inf.    Dual Inf.      Time
       0    7.5000000e+01   7.500000e-01   0.000000e+00      0s
       1    7.2000000e+01   0.000000e+00   0.000000e+00      0s

Solved in 1 iterations and 0.05 seconds
Optimal objective  7.200000000e+01
Optimize a model with 12 rows, 8 columns and 36 nonzeros
Coefficient statistics:
  Matrix range     [1e+00, 1e+02]
  Objective range  [1e+00, 1e+00]
  Bounds range     [0e+00, 0e+00]
  RHS range        [1e+01, 7e+01]
Presolve time: 0.01s

Solved in 0 iterations and 0.01 seconds
Infeasible or unbounded model
Optimize a model with 12 rows, 8 columns and 36 nonzeros
Coefficient statistics:
  Matrix range     [1e+00, 1e+02]
  Objective range  [1e+00, 1e+00]
  Bounds range     [0e+00, 0e+00]
  RHS range        [1e+01, 7e+01]
Presolve time: 0.01s
Presolved: 12 rows, 8 columns, 36 nonzeros

Iteration    Objective       Primal Inf.    Dual Inf.      Time
       0    0.0000000e+00   5.775000e+01   0.000000e+00      0s
      10    1.8000000e+01   0.000000e+00   0.000000e+00      0s

Solved in 10 iterations and 0.01 seconds
Optimal objective  1.800000000e+01
Optimize a model with 2 rows, 3 columns and 6 nonzeros
Coefficient statistics:
  Matrix range     [1e+00, 3e+00]
  Objective range  [3e+00, 7e+00]
  Bounds range     [0e+00, 0e+00]
  RHS range        [5e+00, 8e+00]
Presolve time: 0.01s
Presolved: 2 rows, 3 columns, 6 nonzeros

Iteration    Objective       Primal Inf.    Dual Inf.      Time
       0    0.0000000e+00   3.250000e+00   0.000000e+00      0s
       3    1.4200000e+01   0.000000e+00   0.000000e+00      0s

Solved in 3 iterations and 0.01 seconds
Optimal objective  1.420000000e+01
Optimize a model with 2 rows, 3 columns and 6 nonzeros
Coefficient statistics:
  Matrix range     [1e+00, 3e+00]
  Objective range  [3e+00, 7e+00]
  Bounds range     [0e+00, 0e+00]
  RHS range        [5e+00, 8e+00]
Presolve time: 0.01s
Presolved: 2 rows, 3 columns, 6 nonzeros

Iteration    Objective       Primal Inf.    Dual Inf.      Time
       0    0.0000000e+00   3.250000e+00   0.000000e+00      0s
       3    1.4200000e+01   0.000000e+00   0.000000e+00      0s

Solved in 3 iterations and 0.01 seconds
Optimal objective  1.420000000e+01
Optimize a model with 3 rows, 3 columns and 7 nonzeros
Coefficient statistics:
  Matrix range     [1e+00, 3e+00]
  Objective range  [3e+00, 7e+00]
  Bounds range     [0e+00, 0e+00]
  RHS range        [4e+00, 8e+00]
Presolve removed 3 rows and 3 columns
Presolve time: 0.01s
Presolve: All rows and columns removed
Iteration    Objective       Primal Inf.    Dual Inf.      Time
       0    1.4333333e+01   0.000000e+00   0.000000e+00      0s

Solved in 0 iterations and 0.01 seconds
Optimal objective  1.433333333e+01
Optimize a model with 3 rows, 3 columns and 7 nonzeros
Coefficient statistics:
  Matrix range     [1e+00, 3e+00]
  Objective range  [3e+00, 7e+00]
  Bounds range     [0e+00, 0e+00]
  RHS range        [3e+00, 8e+00]
Presolve removed 1 rows and 0 columns
Presolve time: 0.01s
Presolved: 2 rows, 3 columns, 6 nonzeros

Iteration    Objective       Primal Inf.    Dual Inf.      Time
       0    0.0000000e+00   3.250000e+00   0.000000e+00      0s
       2    1.4500000e+01   0.000000e+00   0.000000e+00      0s

Solved in 2 iterations and 0.02 seconds
Optimal objective  1.450000000e+01
Optimize a model with 3 rows, 2 columns and 5 nonzeros
Coefficient statistics:
  Matrix range     [1e+00, 3e+00]
  Objective range  [3e+00, 4e+00]
  Bounds range     [0e+00, 0e+00]
  RHS range        [3e+00, 8e+00]
Presolve removed 1 rows and 0 columns
Presolve time: 0.01s
Presolved: 2 rows, 2 columns, 4 nonzeros

Iteration    Objective       Primal Inf.    Dual Inf.      Time
       0    1.0666667e+01   2.333333e+00   0.000000e+00      0s
       1    1.7000000e+01   0.000000e+00   0.000000e+00      0s

Solved in 1 iterations and 0.02 seconds
Optimal objective  1.700000000e+01
Optimize a model with 4 rows, 3 columns and 8 nonzeros
Coefficient statistics:
  Matrix range     [1e+00, 3e+00]
  Objective range  [3e+00, 7e+00]
  Bounds range     [0e+00, 0e+00]
  RHS range        [1e+00, 8e+00]
Presolve removed 4 rows and 3 columns
Presolve time: 0.01s
Presolve: All rows and columns removed
Iteration    Objective       Primal Inf.    Dual Inf.      Time
       0    1.9000000e+01   0.000000e+00   0.000000e+00      0s

Solved in 0 iterations and 0.01 seconds
Optimal objective  1.900000000e+01
Optimize a model with 3 rows, 2 columns and 5 nonzeros
Coefficient statistics:
  Matrix range     [1e+00, 3e+00]
  Objective range  [3e+00, 4e+00]
  Bounds range     [0e+00, 0e+00]
  RHS range        [4e+00, 8e+00]
Presolve removed 3 rows and 2 columns
Presolve time: 0.01s
Presolve: All rows and columns removed
Iteration    Objective       Primal Inf.    Dual Inf.      Time
       0    1.5000000e+01   0.000000e+00   0.000000e+00      0s

Solved in 0 iterations and 0.01 seconds
Optimal objective  1.500000000e+01
Optimize a model with 2 rows, 3 columns and 6 nonzeros
Variable types: 0 continuous, 3 integer (0 binary)
Coefficient statistics:
  Matrix range     [1e+00, 3e+00]
  Objective range  [3e+00, 7e+00]
  Bounds range     [0e+00, 0e+00]
  RHS range        [5e+00, 8e+00]
Found heuristic solution: objective 20.0000000
Presolve time: 0.01s
Presolved: 2 rows, 3 columns, 6 nonzeros
Variable types: 0 continuous, 3 integer (0 binary)

Root relaxation: objective 1.420000e+01, 3 iterations, 0.00 seconds

    Nodes    |    Current Node    |     Objective Bounds      |     Work
 Expl Unexpl |  Obj  Depth IntInf | Incumbent    BestBd   Gap | It/Node Time

     0     0   14.20000    0    2   20.00000   14.20000  29.0%     -    0s
H    0     0                      15.0000000   14.20000  5.33%     -    0s

Explored 1 nodes (3 simplex iterations) in 0.08 seconds
Thread count was 8 (of 8 available processors)

Solution count 2: 15 20 

Optimal solution found (tolerance 1.00e-04)
Best objective 1.500000000000e+01, best bound 1.500000000000e+01, gap 0.0000%
Optimize a model with 3 rows, 2 columns and 6 nonzeros
Variable types: 0 continuous, 2 integer (0 binary)
Coefficient statistics:
  Matrix range     [1e+00, 3e+00]
  Objective range  [5e+00, 8e+00]
  Bounds range     [0e+00, 0e+00]
  RHS range        [3e+00, 7e+00]
Found heuristic solution: objective 25.0000000
Presolve removed 1 rows and 0 columns
Presolve time: 0.00s
Presolved: 2 rows, 2 columns, 4 nonzeros
Variable types: 0 continuous, 2 integer (0 binary)

Root relaxation: objective 1.800000e+01, 0 iterations, 0.00 seconds

    Nodes    |    Current Node    |     Objective Bounds      |     Work
 Expl Unexpl |  Obj  Depth IntInf | Incumbent    BestBd   Gap | It/Node Time

*    0     0               0      18.0000000   18.00000  0.00%     -    0s

Explored 0 nodes (0 simplex iterations) in 0.02 seconds
Thread count was 8 (of 8 available processors)

Solution count 2: 18 25 

Optimal solution found (tolerance 1.00e-04)
Best objective 1.800000000000e+01, best bound 1.800000000000e+01, gap 0.0000%
Optimize a model with 3 rows, 2 columns and 6 nonzeros
Variable types: 0 continuous, 2 integer (0 binary)
Coefficient statistics:
  Matrix range     [1e+00, 3e+00]
  Objective range  [5e+00, 8e+00]
  Bounds range     [0e+00, 0e+00]
  RHS range        [3e+00, 7e+00]
Found heuristic solution: objective 25.0000000
Presolve removed 1 rows and 0 columns
Presolve time: 0.00s
Presolved: 2 rows, 2 columns, 4 nonzeros
Variable types: 0 continuous, 2 integer (0 binary)

Root relaxation: objective 1.800000e+01, 0 iterations, 0.00 seconds

    Nodes    |    Current Node    |     Objective Bounds      |     Work
 Expl Unexpl |  Obj  Depth IntInf | Incumbent    BestBd   Gap | It/Node Time

*    0     0               0      18.0000000   18.00000  0.00%     -    0s

Explored 0 nodes (0 simplex iterations) in 0.02 seconds
Thread count was 8 (of 8 available processors)

Solution count 2: 18 25 

Optimal solution found (tolerance 1.00e-04)
Best objective 1.800000000000e+01, best bound 1.800000000000e+01, gap 0.0000%
Optimize a model with 3 rows, 2 columns and 6 nonzeros
Variable types: 0 continuous, 2 integer (0 binary)
Coefficient statistics:
  Matrix range     [1e+00, 3e+00]
  Objective range  [5e+00, 8e+00]
  Bounds range     [0e+00, 0e+00]
  RHS range        [3e+00, 7e+00]
Found heuristic solution: objective 0.0000000

Explored 0 nodes (0 simplex iterations) in 0.01 seconds
Thread count was 1 (of 8 available processors)

Solution count 1: 0 

Optimal solution found (tolerance 1.00e-04)
Best objective 0.000000000000e+00, best bound 0.000000000000e+00, gap 0.0000%
Optimize a model with 3 rows, 2 columns and 6 nonzeros
Coefficient statistics:
  Matrix range     [1e+00, 3e+00]
  Objective range  [5e+00, 8e+00]
  Bounds range     [0e+00, 0e+00]
  RHS range        [3e+00, 7e+00]
Presolve removed 3 rows and 2 columns
Presolve time: 0.01s
Presolve: All rows and columns removed
Iteration    Objective       Primal Inf.    Dual Inf.      Time
       0    0.0000000e+00   0.000000e+00   0.000000e+00      0s

Solved in 0 iterations and 0.01 seconds
Optimal objective  0.000000000e+00
Optimize a model with 3 rows, 2 columns and 6 nonzeros
Coefficient statistics:
  Matrix range     [1e+00, 3e+00]
  Objective range  [5e+00, 8e+00]
  Bounds range     [0e+00, 0e+00]
  RHS range        [3e+00, 7e+00]
Presolve time: 0.01s
Presolved: 3 rows, 2 columns, 6 nonzeros

Iteration    Objective       Primal Inf.    Dual Inf.      Time
       0    1.3000000e+31   3.500000e+30   1.300000e+01      0s
       2    1.4200000e+01   0.000000e+00   0.000000e+00      0s

Solved in 2 iterations and 0.01 seconds
Optimal objective  1.420000000e+01
Optimize a model with 3 rows, 2 columns and 6 nonzeros
Variable types: 0 continuous, 2 integer (0 binary)
Coefficient statistics:
  Matrix range     [1e+00, 3e+00]
  Objective range  [5e+00, 8e+00]
  Bounds range     [0e+00, 0e+00]
  RHS range        [3e+00, 7e+00]
Found heuristic solution: objective 13.0000000
Presolve removed 3 rows and 2 columns
Presolve time: 0.00s
Presolve: All rows and columns removed

Explored 0 nodes (0 simplex iterations) in 0.01 seconds
Thread count was 1 (of 8 available processors)

Solution count 1: 13 

Optimal solution found (tolerance 1.00e-04)
Best objective 1.300000000000e+01, best bound 1.300000000000e+01, gap 0.0000%

Gurobi 8.0.1 (linux64, Python) logging started Fri Nov 29 13:36:05 2019

Optimize a model with 4 rows, 4 columns and 12 nonzeros
Coefficient statistics:
  Matrix range     [2e-01, 1e+00]
  Objective range  [1e+00, 1e+00]
  Bounds range     [0e+00, 0e+00]
  RHS range        [1e+00, 1e+00]
Presolve time: 0.03s

Solved in 0 iterations and 0.03 seconds
Infeasible or unbounded model
Optimize a model with 4 rows, 4 columns and 12 nonzeros
Coefficient statistics:
  Matrix range     [2e-01, 1e+00]
  Objective range  [1e+00, 1e+00]
  Bounds range     [0e+00, 0e+00]
  RHS range        [1e+00, 1e+00]
Presolve time: 0.01s

Solved in 0 iterations and 0.01 seconds
Infeasible or unbounded model
Optimize a model with 4 rows, 4 columns and 12 nonzeros
Coefficient statistics:
  Matrix range     [2e-01, 1e+00]
  Objective range  [1e+00, 1e+00]
  Bounds range     [0e+00, 0e+00]
  RHS range        [1e+00, 1e+00]
Presolve time: 0.01s

Solved in 0 iterations and 0.01 seconds
Infeasible or unbounded model
Optimize a model with 4 rows, 4 columns and 10 nonzeros
Coefficient statistics:
  Matrix range     [2e-01, 1e+00]
  Objective range  [1e+00, 1e+00]
  Bounds range     [0e+00, 0e+00]
  RHS range        [1e+00, 1e+00]
Presolve removed 2 rows and 3 columns
Presolve time: 0.01s

Solved in 0 iterations and 0.01 seconds
Infeasible or unbounded model
Optimize a model with 4 rows, 4 columns and 13 nonzeros
Coefficient statistics:
  Matrix range     [2e-01, 1e+00]
  Objective range  [1e+00, 1e+00]
  Bounds range     [0e+00, 0e+00]
  RHS range        [1e+00, 1e+00]
Presolve removed 4 rows and 4 columns
Presolve time: 0.03s
Presolve: All rows and columns removed
Iteration    Objective       Primal Inf.    Dual Inf.      Time
       0    1.0000000e+00   0.000000e+00   0.000000e+00      0s

Solved in 0 iterations and 0.06 seconds
Optimal objective  1.000000000e+00

Gurobi 8.0.1 (linux64, Python) logging started Fri Nov 29 15:47:31 2019

Optimize a model with 4 rows, 4 columns and 13 nonzeros
Coefficient statistics:
  Matrix range     [2e-01, 1e+00]
  Objective range  [1e+00, 1e+00]
  Bounds range     [0e+00, 0e+00]
  RHS range        [1e+00, 1e+00]
Presolve removed 4 rows and 4 columns
Presolve time: 0.02s
Presolve: All rows and columns removed
Iteration    Objective       Primal Inf.    Dual Inf.      Time
       0   -0.0000000e+00   0.000000e+00   0.000000e+00      0s

Solved in 0 iterations and 0.03 seconds
Optimal objective -0.000000000e+00
Optimize a model with 7 rows, 7 columns and 43 nonzeros
Coefficient statistics:
  Matrix range     [2e-03, 1e+00]
  Objective range  [1e+00, 1e+00]
  Bounds range     [0e+00, 0e+00]
  RHS range        [1e+00, 1e+00]
Presolve time: 0.01s
Presolved: 7 rows, 7 columns, 43 nonzeros

Iteration    Objective       Primal Inf.    Dual Inf.      Time
       0    1.0000000e+30   7.000000e+30   1.000000e+00      0s
       8   -0.0000000e+00   0.000000e+00   0.000000e+00      0s

Solved in 8 iterations and 0.01 seconds
Optimal objective -0.000000000e+00
Optimize a model with 9 rows, 9 columns and 73 nonzeros
Coefficient statistics:
  Matrix range     [2e-03, 1e+00]
  Objective range  [1e+00, 1e+00]
  Bounds range     [0e+00, 0e+00]
  RHS range        [1e+00, 1e+00]
Presolve time: 0.01s
Presolved: 9 rows, 9 columns, 73 nonzeros

Iteration    Objective       Primal Inf.    Dual Inf.      Time
       0    1.0000000e+30   9.000000e+30   1.000000e+00      0s
       8   -0.0000000e+00   0.000000e+00   0.000000e+00      0s

Solved in 8 iterations and 0.01 seconds
Optimal objective -0.000000000e+00
Optimize a model with 9 rows, 9 columns and 73 nonzeros
Coefficient statistics:
  Matrix range     [2e-03, 1e+00]
  Objective range  [1e+00, 1e+00]
  Bounds range     [0e+00, 0e+00]
  RHS range        [1e+00, 1e+00]
Presolve time: 0.01s
Presolved: 9 rows, 9 columns, 73 nonzeros

Iteration    Objective       Primal Inf.    Dual Inf.      Time
       0    1.0000000e+30   9.000000e+30   1.000000e+00      0s
       8   -0.0000000e+00   0.000000e+00   0.000000e+00      0s

Solved in 8 iterations and 0.01 seconds
Optimal objective -0.000000000e+00
Optimize a model with 9 rows, 9 columns and 73 nonzeros
Coefficient statistics:
  Matrix range     [2e-03, 1e+00]
  Objective range  [1e+00, 1e+00]
  Bounds range     [0e+00, 0e+00]
  RHS range        [1e+00, 1e+00]
Presolve time: 0.01s
Presolved: 9 rows, 9 columns, 73 nonzeros

Iteration    Objective       Primal Inf.    Dual Inf.      Time
       0    1.0000000e+30   9.000000e+30   1.000000e+00      0s
       8   -0.0000000e+00   0.000000e+00   0.000000e+00      0s

Solved in 8 iterations and 0.01 seconds
Optimal objective -0.000000000e+00
Optimize a model with 6 rows, 6 columns and 31 nonzeros
Coefficient statistics:
  Matrix range     [1e-02, 1e+00]
  Objective range  [1e+00, 1e+00]
  Bounds range     [0e+00, 0e+00]
  RHS range        [1e+00, 1e+00]
Presolve time: 0.01s
Presolved: 6 rows, 6 columns, 31 nonzeros

Iteration    Objective       Primal Inf.    Dual Inf.      Time
       0    1.0000000e+30   5.443909e+30   1.000000e+00      0s
       4   -0.0000000e+00   0.000000e+00   0.000000e+00      0s

Solved in 4 iterations and 0.01 seconds
Optimal objective -0.000000000e+00
Optimize a model with 5 rows, 5 columns and 21 nonzeros
Coefficient statistics:
  Matrix range     [5e-02, 1e+00]
  Objective range  [1e+00, 1e+00]
  Bounds range     [0e+00, 0e+00]
  RHS range        [1e+00, 1e+00]
Presolve removed 5 rows and 5 columns
Presolve time: 0.01s
Presolve: All rows and columns removed
Iteration    Objective       Primal Inf.    Dual Inf.      Time
       0   -0.0000000e+00   0.000000e+00   0.000000e+00      0s

Solved in 0 iterations and 0.01 seconds
Optimal objective -0.000000000e+00
Optimize a model with 5 rows, 5 columns and 21 nonzeros
Coefficient statistics:
  Matrix range     [5e-02, 1e+00]
  Objective range  [1e+00, 1e+00]
  Bounds range     [0e+00, 0e+00]
  RHS range        [1e+00, 1e+00]
Presolve removed 5 rows and 5 columns
Presolve time: 0.01s
Presolve: All rows and columns removed
Iteration    Objective       Primal Inf.    Dual Inf.      Time
       0   -0.0000000e+00   0.000000e+00   0.000000e+00      0s

Solved in 0 iterations and 0.01 seconds
Optimal objective -0.000000000e+00
Optimize a model with 5 rows, 5 columns and 21 nonzeros
Coefficient statistics:
  Matrix range     [5e-02, 1e+00]
  Objective range  [1e+00, 1e+00]
  Bounds range     [0e+00, 0e+00]
  RHS range        [1e+00, 1e+00]
Presolve removed 5 rows and 5 columns
Presolve time: 0.01s
Presolve: All rows and columns removed
Iteration    Objective       Primal Inf.    Dual Inf.      Time
       0   -0.0000000e+00   0.000000e+00   0.000000e+00      0s

Solved in 0 iterations and 0.02 seconds
Optimal objective -0.000000000e+00
Optimize a model with 4 rows, 4 columns and 13 nonzeros
Coefficient statistics:
  Matrix range     [2e-01, 1e+00]
  Objective range  [1e+00, 1e+00]
  Bounds range     [0e+00, 0e+00]
  RHS range        [1e+00, 1e+00]
Presolve removed 4 rows and 4 columns
Presolve time: 0.01s
Presolve: All rows and columns removed
Iteration    Objective       Primal Inf.    Dual Inf.      Time
       0   -0.0000000e+00   0.000000e+00   0.000000e+00      0s

Solved in 0 iterations and 0.01 seconds
Optimal objective -0.000000000e+00
Optimize a model with 4 rows, 4 columns and 13 nonzeros
Coefficient statistics:
  Matrix range     [2e-01, 1e+00]
  Objective range  [1e+00, 1e+00]
  Bounds range     [0e+00, 0e+00]
  RHS range        [1e+00, 1e+00]
Presolve removed 4 rows and 4 columns
Presolve time: 0.01s
Presolve: All rows and columns removed
Iteration    Objective       Primal Inf.    Dual Inf.      Time
       0   -0.0000000e+00   0.000000e+00   0.000000e+00      0s

Solved in 0 iterations and 0.01 seconds
Optimal objective -0.000000000e+00
Optimize a model with 4 rows, 4 columns and 13 nonzeros
Coefficient statistics:
  Matrix range     [2e-01, 1e+00]
  Objective range  [1e+00, 1e+00]
  Bounds range     [0e+00, 0e+00]
  RHS range        [1e+00, 1e+00]
Presolve removed 4 rows and 4 columns
Presolve time: 0.01s
Presolve: All rows and columns removed
Iteration    Objective       Primal Inf.    Dual Inf.      Time
       0   -0.0000000e+00   0.000000e+00   0.000000e+00      0s

Solved in 0 iterations and 0.01 seconds
Optimal objective -0.000000000e+00
Optimize a model with 4 rows, 4 columns and 13 nonzeros
Coefficient statistics:
  Matrix range     [2e-01, 1e+00]
  Objective range  [1e+00, 1e+00]
  Bounds range     [0e+00, 0e+00]
  RHS range        [1e+00, 1e+00]
Presolve removed 4 rows and 4 columns
Presolve time: 0.01s
Presolve: All rows and columns removed
Iteration    Objective       Primal Inf.    Dual Inf.      Time
       0   -0.0000000e+00   0.000000e+00   0.000000e+00      0s

Solved in 0 iterations and 0.01 seconds
Optimal objective -0.000000000e+00
Optimize a model with 4 rows, 4 columns and 13 nonzeros
Coefficient statistics:
  Matrix range     [2e-01, 1e+00]
  Objective range  [1e+00, 1e+00]
  Bounds range     [0e+00, 0e+00]
  RHS range        [1e+00, 1e+00]
Presolve removed 4 rows and 4 columns
Presolve time: 0.01s
Presolve: All rows and columns removed
Iteration    Objective       Primal Inf.    Dual Inf.      Time
       0   -0.0000000e+00   0.000000e+00   0.000000e+00      0s

Solved in 0 iterations and 0.01 seconds
Optimal objective -0.000000000e+00
Optimize a model with 4 rows, 4 columns and 13 nonzeros
Coefficient statistics:
  Matrix range     [2e-01, 1e+00]
  Objective range  [1e+00, 1e+00]
  Bounds range     [0e+00, 0e+00]
  RHS range        [1e+00, 1e+00]
Presolve removed 4 rows and 4 columns
Presolve time: 0.01s
Presolve: All rows and columns removed
Iteration    Objective       Primal Inf.    Dual Inf.      Time
       0   -0.0000000e+00   0.000000e+00   0.000000e+00      0s

Solved in 0 iterations and 0.01 seconds
Optimal objective -0.000000000e+00
Optimize a model with 4 rows, 4 columns and 13 nonzeros
Coefficient statistics:
  Matrix range     [2e-01, 1e+00]
  Objective range  [1e+00, 1e+00]
  Bounds range     [0e+00, 0e+00]
  RHS range        [1e+00, 1e+00]
Presolve removed 4 rows and 4 columns
Presolve time: 0.01s
Presolve: All rows and columns removed
Iteration    Objective       Primal Inf.    Dual Inf.      Time
       0   -0.0000000e+00   0.000000e+00   0.000000e+00      0s

Solved in 0 iterations and 0.01 seconds
Optimal objective -0.000000000e+00
Optimize a model with 4 rows, 4 columns and 13 nonzeros
Coefficient statistics:
  Matrix range     [2e-01, 1e+00]
  Objective range  [1e+00, 1e+00]
  Bounds range     [0e+00, 0e+00]
  RHS range        [1e+00, 1e+00]
Presolve removed 4 rows and 4 columns
Presolve time: 0.01s
Presolve: All rows and columns removed
Iteration    Objective       Primal Inf.    Dual Inf.      Time
       0   -0.0000000e+00   0.000000e+00   0.000000e+00      0s

Solved in 0 iterations and 0.01 seconds
Optimal objective -0.000000000e+00
Optimize a model with 4 rows, 4 columns and 13 nonzeros
Coefficient statistics:
  Matrix range     [2e-01, 1e+00]
  Objective range  [1e+00, 1e+00]
  Bounds range     [0e+00, 0e+00]
  RHS range        [1e+00, 1e+00]
Presolve removed 4 rows and 4 columns
Presolve time: 0.01s
Presolve: All rows and columns removed
Iteration    Objective       Primal Inf.    Dual Inf.      Time
       0   -0.0000000e+00   0.000000e+00   0.000000e+00      0s

Solved in 0 iterations and 0.01 seconds
Optimal objective -0.000000000e+00
Optimize a model with 4 rows, 4 columns and 13 nonzeros
Coefficient statistics:
  Matrix range     [2e-01, 1e+00]
  Objective range  [1e+00, 1e+00]
  Bounds range     [0e+00, 0e+00]
  RHS range        [1e+00, 1e+00]
Presolve removed 4 rows and 4 columns
Presolve time: 0.01s
Presolve: All rows and columns removed
Iteration    Objective       Primal Inf.    Dual Inf.      Time
       0   -0.0000000e+00   0.000000e+00   0.000000e+00      0s

Solved in 0 iterations and 0.02 seconds
Optimal objective -0.000000000e+00
Optimize a model with 4 rows, 4 columns and 13 nonzeros
Coefficient statistics:
  Matrix range     [2e-01, 1e+00]
  Objective range  [1e+00, 1e+00]
  Bounds range     [0e+00, 0e+00]
  RHS range        [1e+00, 1e+00]
Presolve removed 4 rows and 4 columns
Presolve time: 0.01s
Presolve: All rows and columns removed
Iteration    Objective       Primal Inf.    Dual Inf.      Time
       0   -0.0000000e+00   0.000000e+00   0.000000e+00      0s

Solved in 0 iterations and 0.01 seconds
Optimal objective -0.000000000e+00
Optimize a model with 4 rows, 4 columns and 13 nonzeros
Coefficient statistics:
  Matrix range     [2e-01, 1e+00]
  Objective range  [1e+00, 1e+00]
  Bounds range     [0e+00, 0e+00]
  RHS range        [1e+00, 1e+00]
Presolve removed 4 rows and 4 columns
Presolve time: 0.01s
Presolve: All rows and columns removed
Iteration    Objective       Primal Inf.    Dual Inf.      Time
       0   -0.0000000e+00   0.000000e+00   0.000000e+00      0s

Solved in 0 iterations and 0.01 seconds
Optimal objective -0.000000000e+00
Optimize a model with 9 rows, 9 columns and 73 nonzeros
Coefficient statistics:
  Matrix range     [2e-03, 1e+00]
  Objective range  [1e+00, 1e+00]
  Bounds range     [0e+00, 0e+00]
  RHS range        [1e+00, 1e+00]
Presolve time: 0.01s
Presolved: 9 rows, 9 columns, 73 nonzeros

Iteration    Objective       Primal Inf.    Dual Inf.      Time
       0    1.0000000e+30   9.000000e+30   1.000000e+00      0s
       8   -0.0000000e+00   0.000000e+00   0.000000e+00      0s

Solved in 8 iterations and 0.02 seconds
Optimal objective -0.000000000e+00
Optimize a model with 9 rows, 9 columns and 73 nonzeros
Coefficient statistics:
  Matrix range     [2e-03, 1e+00]
  Objective range  [1e+00, 1e+00]
  Bounds range     [0e+00, 0e+00]
  RHS range        [1e+00, 1e+00]
Presolve time: 0.01s
Presolved: 9 rows, 9 columns, 73 nonzeros

Iteration    Objective       Primal Inf.    Dual Inf.      Time
       0    1.0000000e+30   9.000000e+30   1.000000e+00      0s
       8   -0.0000000e+00   0.000000e+00   0.000000e+00      0s

Solved in 8 iterations and 0.01 seconds
Optimal objective -0.000000000e+00
Optimize a model with 9 rows, 9 columns and 73 nonzeros
Coefficient statistics:
  Matrix range     [2e-03, 1e+00]
  Objective range  [1e+00, 1e+00]
  Bounds range     [0e+00, 0e+00]
  RHS range        [1e+00, 1e+00]
Presolve time: 0.01s
Presolved: 9 rows, 9 columns, 73 nonzeros

Iteration    Objective       Primal Inf.    Dual Inf.      Time
       0    1.0000000e+30   9.000000e+30   1.000000e+00      0s
       8   -0.0000000e+00   0.000000e+00   0.000000e+00      0s

Solved in 8 iterations and 0.01 seconds
Optimal objective -0.000000000e+00
Optimize a model with 9 rows, 9 columns and 73 nonzeros
Coefficient statistics:
  Matrix range     [2e-03, 1e+00]
  Objective range  [1e+00, 1e+00]
  Bounds range     [0e+00, 0e+00]
  RHS range        [1e+00, 1e+00]
Presolve time: 0.01s
Presolved: 9 rows, 9 columns, 73 nonzeros

Iteration    Objective       Primal Inf.    Dual Inf.      Time
       0    1.0000000e+30   9.000000e+30   1.000000e+00      0s
       8   -0.0000000e+00   0.000000e+00   0.000000e+00      0s

Solved in 8 iterations and 0.01 seconds
Optimal objective -0.000000000e+00
Optimize a model with 9 rows, 9 columns and 73 nonzeros
Coefficient statistics:
  Matrix range     [2e-03, 1e+00]
  Objective range  [1e+00, 1e+00]
  Bounds range     [0e+00, 0e+00]
  RHS range        [1e+00, 1e+00]
Presolve time: 0.01s
Presolved: 9 rows, 9 columns, 73 nonzeros

Iteration    Objective       Primal Inf.    Dual Inf.      Time
       0    1.0000000e+30   9.000000e+30   1.000000e+00      0s
       8   -0.0000000e+00   0.000000e+00   0.000000e+00      0s

Solved in 8 iterations and 0.01 seconds
Optimal objective -0.000000000e+00
Optimize a model with 9 rows, 9 columns and 73 nonzeros
Coefficient statistics:
  Matrix range     [2e-03, 1e+00]
  Objective range  [1e+00, 1e+00]
  Bounds range     [0e+00, 0e+00]
  RHS range        [1e+00, 1e+00]
Presolve time: 0.01s
Presolved: 9 rows, 9 columns, 73 nonzeros

Iteration    Objective       Primal Inf.    Dual Inf.      Time
       0    1.0000000e+30   9.000000e+30   1.000000e+00      0s
       8   -0.0000000e+00   0.000000e+00   0.000000e+00      0s

Solved in 8 iterations and 0.01 seconds
Optimal objective -0.000000000e+00
Optimize a model with 9 rows, 9 columns and 73 nonzeros
Coefficient statistics:
  Matrix range     [2e-03, 1e+00]
  Objective range  [1e+00, 1e+00]
  Bounds range     [0e+00, 0e+00]
  RHS range        [1e+00, 1e+00]
Presolve time: 0.01s
Presolved: 9 rows, 9 columns, 73 nonzeros

Iteration    Objective       Primal Inf.    Dual Inf.      Time
       0    1.0000000e+30   9.000000e+30   1.000000e+00      0s
       8   -0.0000000e+00   0.000000e+00   0.000000e+00      0s

Solved in 8 iterations and 0.01 seconds
Optimal objective -0.000000000e+00
Optimize a model with 9 rows, 9 columns and 73 nonzeros
Coefficient statistics:
  Matrix range     [2e-03, 1e+00]
  Objective range  [1e+00, 1e+00]
  Bounds range     [0e+00, 0e+00]
  RHS range        [1e+00, 1e+00]
Presolve time: 0.01s
Presolved: 9 rows, 9 columns, 73 nonzeros

Iteration    Objective       Primal Inf.    Dual Inf.      Time
       0    1.0000000e+30   9.000000e+30   1.000000e+00      0s
       8   -0.0000000e+00   0.000000e+00   0.000000e+00      0s

Solved in 8 iterations and 0.01 seconds
Optimal objective -0.000000000e+00
Optimize a model with 9 rows, 9 columns and 73 nonzeros
Coefficient statistics:
  Matrix range     [2e-03, 1e+00]
  Objective range  [1e+00, 1e+00]
  Bounds range     [0e+00, 0e+00]
  RHS range        [1e+00, 1e+00]
Presolve time: 0.01s
Presolved: 9 rows, 9 columns, 73 nonzeros

Iteration    Objective       Primal Inf.    Dual Inf.      Time
       0    1.0000000e+30   9.000000e+30   1.000000e+00      0s
       8   -0.0000000e+00   0.000000e+00   0.000000e+00      0s

Solved in 8 iterations and 0.01 seconds
Optimal objective -0.000000000e+00
Optimize a model with 9 rows, 9 columns and 73 nonzeros
Coefficient statistics:
  Matrix range     [2e-03, 1e+00]
  Objective range  [1e+00, 1e+00]
  Bounds range     [0e+00, 0e+00]
  RHS range        [1e+00, 1e+00]
Presolve time: 0.01s
Presolved: 9 rows, 9 columns, 73 nonzeros

Iteration    Objective       Primal Inf.    Dual Inf.      Time
       0    1.0000000e+30   9.000000e+30   1.000000e+00      0s
       8   -0.0000000e+00   0.000000e+00   0.000000e+00      0s

Solved in 8 iterations and 0.01 seconds
Optimal objective -0.000000000e+00
Optimize a model with 9 rows, 9 columns and 73 nonzeros
Coefficient statistics:
  Matrix range     [2e-03, 1e+00]
  Objective range  [1e+00, 1e+00]
  Bounds range     [0e+00, 0e+00]
  RHS range        [1e+00, 1e+00]
Presolve time: 0.01s
Presolved: 9 rows, 9 columns, 73 nonzeros

Iteration    Objective       Primal Inf.    Dual Inf.      Time
       0    1.0000000e+30   9.000000e+30   1.000000e+00      0s
       8   -0.0000000e+00   0.000000e+00   0.000000e+00      0s

Solved in 8 iterations and 0.01 seconds
Optimal objective -0.000000000e+00
